c 
p cnf 111 189
-4 21 22 0
-4 21 -22 0
-4 -21 22 0
-4 -21 -22 0
-9 20 23 0
-23 -11 24 0
-24 8 7 0
-10 12 -5 0
15 -18 25 0
15 -18 -25 0
11 26 27 0
11 26 -27 0
11 -26 27 0
11 -26 -27 0
-16 -12 28 0
-28 17 20 0
18 29 30 0
18 29 -30 0
18 -29 30 0
18 -29 -30 0
-18 -5 -9 0
-4 -9 31 0
-31 -5 32 0
-32 7 -15 0
17 -2 33 0
17 -2 -33 0
-5 9 34 0
-34 -7 35 0
-35 -15 10 0
-9 -13 36 0
-36 -19 4 0
14 -2 37 0
14 -2 -37 0
16 19 38 0
16 19 -38 0
-2 7 39 0
-39 -4 -17 0
5 -2 40 0
-40 -14 -1 0
-3 41 42 0
-3 41 -42 0
-3 -41 42 0
-3 -41 -42 0
19 43 44 0
19 43 -44 0
19 -43 44 0
19 -43 -44 0
11 14 45 0
11 14 -45 0
8 46 47 0
8 46 -47 0
8 -46 47 0
8 -46 -47 0
2 10 13 0
-11 -3 48 0
-11 -3 -48 0
1 12 -18 0
-3 -19 1 0
-9 -16 49 0
-9 -16 -49 0
-12 2 50 0
-50 20 -8 0
-17 -11 51 0
-51 7 -1 0
19 11 52 0
-52 16 -7 0
2 -3 53 0
-53 14 54 0
-54 -7 17 0
-13 55 56 0
-13 55 -56 0
-13 -55 56 0
-13 -55 -56 0
11 -9 18 0
-12 -13 57 0
-57 15 -10 0
4 58 59 0
4 58 -59 0
4 -58 59 0
4 -58 -59 0
-14 -13 60 0
-14 -13 -60 0
3 -15 61 0
-61 1 62 0
-62 11 -5 0
-20 -4 63 0
-20 -4 -63 0
-11 -13 -5 0
16 64 65 0
16 64 -65 0
16 -64 65 0
16 -64 -65 0
-5 3 66 0
-5 3 -66 0
8 15 67 0
-67 -12 68 0
-68 13 7 0
-5 12 69 0
-69 -8 1 0
-4 12 70 0
-4 12 -70 0
11 71 72 0
11 71 -72 0
11 -71 72 0
11 -71 -72 0
-4 10 11 0
-11 -17 73 0
-73 4 -12 0
10 -1 -14 0
-3 -12 74 0
-3 -12 -74 0
15 7 18 0
10 -9 2 0
6 75 76 0
6 75 -76 0
6 -75 76 0
6 -75 -76 0
-19 -2 77 0
-77 -11 8 0
-15 8 78 0
-15 8 -78 0
15 6 79 0
-79 -14 -2 0
-16 80 81 0
-16 80 -81 0
-16 -80 81 0
-16 -80 -81 0
-11 7 82 0
-82 1 16 0
-20 -3 83 0
-83 -10 84 0
-84 -5 -13 0
-18 2 85 0
-18 2 -85 0
-6 -20 86 0
-86 12 7 0
1 87 88 0
1 87 -88 0
1 -87 88 0
1 -87 -88 0
-18 -3 89 0
-18 -3 -89 0
8 4 6 0
-7 13 90 0
-7 13 -90 0
14 91 92 0
14 91 -92 0
14 -91 92 0
14 -91 -92 0
-10 93 94 0
-10 93 -94 0
-10 -93 94 0
-10 -93 -94 0
17 11 12 0
8 -6 95 0
-95 2 4 0
-13 -6 96 0
-13 -6 -96 0
1 11 97 0
-97 13 14 0
14 -3 98 0
-98 -8 -13 0
5 6 99 0
-99 10 100 0
-100 20 -8 0
15 -16 101 0
-101 5 -10 0
14 102 103 0
14 102 -103 0
14 -102 103 0
14 -102 -103 0
3 11 104 0
-104 12 -17 0
-14 16 105 0
-105 12 -7 0
15 8 106 0
-106 -2 20 0
12 19 -14 0
-15 -20 -3 0
-18 107 108 0
-18 107 -108 0
-18 -107 108 0
-18 -107 -108 0
15 109 110 0
15 109 -110 0
15 -109 110 0
15 -109 -110 0
16 2 111 0
16 2 -111 0
